c The Unicorn Puzzle

c 1 mythical?
c 2 immortal?
c 3 mammal?
c 4 horned?
c 5 magical?

c If the unicorn is mythical, then it is immortal.
c 1 -> 2 means ¬1 ∨ 2

c If the unicorn is not mythical, then it is a mortal mammal.
c ¬1 -> (¬2 ∧ 3) means 1 ∨ (-2 ∧ 3) means (1 ∨ -2) ∧ (1 ∨ 3)

c If the unicorn is either immortal or a mammal, then it is horned.
c 2 ∨ 3 -> 4 means (¬2 ∨ 4) ∧ (¬3 ∨ 4)

c The unicorn is magical if it is horned.
c 4 -> 5 means ¬4 ∨ 5

p cnf 5 6
-1 2 0
1 -2 0
1 3 0
-2 4 0
-3 4 0
-4 5 0

c Is the unicorn magical?
c -5 0
c Ver se dá UNSAT e adicionar +1 ao nmr de clausulas. Se for, então ele é magical. Dá UNSAT logo its true.

c Is the unicorn horned?
c -4 0
c Ver se dá UNSAT e adicionar +1 ao nmr de clasulas. Dá UNSAT logo its true.

c Is the unicorn mythical?
c -1 0
c Ver se dá UNSAT e adicionar +1 ao nmr de clasulas. Dá SAT logo não posso responder que ele é garantidamente mítico.

c Is the unicorn simult. mythical and immortal?
c ¬(1 ∧ 2) -> ¬1 ∨ ¬2
c -1 -2 0 Deu SAT logo não posso garantir que é simultaneamente mítico e imortal.

c Será que se o unicórnio for mítico ele é mamífero?
c Gamma |= 1 -> 3 sse Gamma, ¬(1->3) UNSAT
c 1 0
c -3 0
c Deu SAT logo não posso garantir esta propriedade.
